GLPSOL--GLPK LP/MIP Solver 5.0
Parameter(s) specified in the command line:
 --cpxlp --first inputs/new_no_tr/order/jump30_up_right_input.lp -o solutions/new_no_tr/jump30_up_right_input.lp
Reading problem data from 'inputs/new_no_tr/order/jump30_up_right_input.lp'...
inputs/new_no_tr/order/jump30_up_right_input.lp:4275: warning: lower bound of variable 'm_30_30' redefined
inputs/new_no_tr/order/jump30_up_right_input.lp:4275: warning: upper bound of variable 'm_30_30' redefined
4097 rows, 1831 columns, 12379 non-zeros
1831 integer variables, 1660 of which are binary
6075 lines were read
GLPK Integer Optimizer 5.0
4097 rows, 1831 columns, 12379 non-zeros
1831 integer variables, 1660 of which are binary
Preprocessing...
30 hidden packing inequaliti(es) were detected
208 hidden covering inequaliti(es) were detected
790 constraint coefficient(s) were reduced
3839 rows, 1610 columns, 11406 non-zeros
1610 integer variables, 1579 of which are binary
Scaling...
 A: min|aij| =  1.000e+00  max|aij| =  1.024e+04  ratio =  1.024e+04
GM: min|aij| =  4.273e-01  max|aij| =  2.340e+00  ratio =  5.477e+00
EQ: min|aij| =  1.826e-01  max|aij| =  1.000e+00  ratio =  5.477e+00
2N: min|aij| =  1.250e-01  max|aij| =  1.500e+00  ratio =  1.200e+01
Constructing initial basis...
Size of triangular part is 3444
Solving LP relaxation...
GLPK Simplex Optimizer 5.0
3839 rows, 1610 columns, 11406 non-zeros
      0: obj =   2.662400000e+04 inf =   4.820e+02 (241)
    833: obj =   4.319132142e+04 inf =   4.190e-14 (0) 7
*  1118: obj =   2.662400000e+04 inf =   4.087e-14 (0) 3
OPTIMAL LP SOLUTION FOUND
Integer optimization begins...
Long-step dual simplex will be used
+  1118: mip =     not found yet >=              -inf        (1; 0)
+  9352: >>>>>   5.734400000e+04 >=   2.662400000e+04  53.6% (73; 10)
+ 26739: mip =   5.734400000e+04 >=   2.662400000e+04  53.6% (175; 50)
+ 43878: mip =   5.734400000e+04 >=   2.662400000e+04  53.6% (246; 77)
+ 59923: mip =   5.734400000e+04 >=   2.662400000e+04  53.6% (335; 94)
+ 76727: mip =   5.734400000e+04 >=   2.662400000e+04  53.6% (442; 129)
+ 94369: mip =   5.734400000e+04 >=   2.662400000e+04  53.6% (491; 139)
+110024: mip =   5.734400000e+04 >=   2.662400000e+04  53.6% (556; 173)
+126055: mip =   5.734400000e+04 >=   2.662400000e+04  53.6% (639; 197)
+142026: mip =   5.734400000e+04 >=   2.662400000e+04  53.6% (697; 219)
+159404: mip =   5.734400000e+04 >=   2.662400000e+04  53.6% (815; 247)
+175657: mip =   5.734400000e+04 >=   2.662400000e+04  53.6% (897; 276)
+191835: mip =   5.734400000e+04 >=   2.662400000e+04  53.6% (951; 313)
Time used: 60.1 secs.  Memory used: 11.0 Mb.
+208686: mip =   5.734400000e+04 >=   2.662400000e+04  53.6% (1057; 344)
+224247: mip =   5.734400000e+04 >=   2.662400000e+04  53.6% (1112; 377)
+240662: mip =   5.734400000e+04 >=   2.662400000e+04  53.6% (1181; 405)
+257415: mip =   5.734400000e+04 >=   2.662400000e+04  53.6% (1290; 439)
+272736: mip =   5.734400000e+04 >=   2.662400000e+04  53.6% (1310; 449)
+292349: mip =   5.734400000e+04 >=   2.662400000e+04  53.6% (1383; 472)
+307957: mip =   5.734400000e+04 >=   2.662400000e+04  53.6% (1432; 485)
+323844: mip =   5.734400000e+04 >=   2.662400000e+04  53.6% (1480; 499)
+339536: mip =   5.734400000e+04 >=   2.662400000e+04  53.6% (1506; 510)
+354568: mip =   5.734400000e+04 >=   2.662400000e+04  53.6% (1520; 519)
+370613: mip =   5.734400000e+04 >=   2.662400000e+04  53.6% (1600; 539)
Time used: 120.3 secs.  Memory used: 15.9 Mb.
+387463: mip =   5.734400000e+04 >=   2.662400000e+04  53.6% (1668; 559)
+403736: mip =   5.734400000e+04 >=   2.662400000e+04  53.6% (1745; 577)
+419434: mip =   5.734400000e+04 >=   2.662400000e+04  53.6% (1796; 607)
+436053: mip =   5.734400000e+04 >=   2.662400000e+04  53.6% (1877; 639)
+452060: mip =   5.734400000e+04 >=   2.662400000e+04  53.6% (1942; 664)
+468821: mip =   5.734400000e+04 >=   2.662400000e+04  53.6% (1991; 685)
+484767: mip =   5.734400000e+04 >=   2.662400000e+04  53.6% (2060; 702)
+501614: mip =   5.734400000e+04 >=   2.662400000e+04  53.6% (2128; 726)
+517373: mip =   5.734400000e+04 >=   2.662400000e+04  53.6% (2167; 743)
+533654: mip =   5.734400000e+04 >=   2.662400000e+04  53.6% (2210; 774)
+549535: mip =   5.734400000e+04 >=   2.662400000e+04  53.6% (2281; 805)
+565606: mip =   5.734400000e+04 >=   2.662400000e+04  53.6% (2330; 835)
Time used: 181.1 secs.  Memory used: 20.9 Mb.
+581576: mip =   5.734400000e+04 >=   2.662400000e+04  53.6% (2362; 865)
+583485: >>>>>   5.632000000e+04 >=   2.662400000e+04  52.7% (2400; 865)
+600875: mip =   5.632000000e+04 >=   2.662400000e+04  52.7% (2397; 1024)
+617073: mip =   5.632000000e+04 >=   2.662400000e+04  52.7% (2457; 1043)
+633175: mip =   5.632000000e+04 >=   2.662400000e+04  52.7% (2548; 1062)
+649076: mip =   5.632000000e+04 >=   2.662400000e+04  52.7% (2586; 1086)
+665096: mip =   5.632000000e+04 >=   2.662400000e+04  52.7% (2628; 1115)
+680129: mip =   5.632000000e+04 >=   2.662400000e+04  52.7% (2667; 1136)
+696152: mip =   5.632000000e+04 >=   2.662400000e+04  52.7% (2723; 1153)
+712192: mip =   5.632000000e+04 >=   2.662400000e+04  52.7% (2758; 1186)
+728703: mip =   5.632000000e+04 >=   2.662400000e+04  52.7% (2796; 1225)
+745261: mip =   5.632000000e+04 >=   2.662400000e+04  52.7% (2842; 1263)
+761678: mip =   5.632000000e+04 >=   2.662400000e+04  52.7% (2904; 1287)
Time used: 241.1 secs.  Memory used: 25.8 Mb.
+777398: mip =   5.632000000e+04 >=   2.662400000e+04  52.7% (2939; 1319)
+793288: mip =   5.632000000e+04 >=   2.662400000e+04  52.7% (2982; 1358)
+809507: mip =   5.632000000e+04 >=   2.672900000e+04  52.5% (3039; 1393)
+825586: mip =   5.632000000e+04 >=   2.703400000e+04  52.0% (3061; 1419)
+840552: mip =   5.632000000e+04 >=   2.703400000e+04  52.0% (3108; 1433)
+858643: mip =   5.632000000e+04 >=   2.703400000e+04  52.0% (3231; 1454)
+875105: mip =   5.632000000e+04 >=   2.703400000e+04  52.0% (3299; 1466)
+892316: mip =   5.632000000e+04 >=   2.703400000e+04  52.0% (3384; 1486)
+910730: mip =   5.632000000e+04 >=   2.703400000e+04  52.0% (3451; 1509)
+928733: mip =   5.632000000e+04 >=   2.703400000e+04  52.0% (3537; 1532)
+947411: mip =   5.632000000e+04 >=   2.703400000e+04  52.0% (3635; 1548)
+965847: mip =   5.632000000e+04 >=   2.703400000e+04  52.0% (3733; 1568)
Time used: 301.2 secs.  Memory used: 32.6 Mb.
+981305: mip =   5.632000000e+04 >=   2.703400000e+04  52.0% (3788; 1580)
+997423: mip =   5.632000000e+04 >=   2.703400000e+04  52.0% (3856; 1591)
+1014714: mip =   5.632000000e+04 >=   2.703400000e+04  52.0% (3984; 1631)
+1029840: mip =   5.632000000e+04 >=   2.703400000e+04  52.0% (4028; 1649)
+1046299: mip =   5.632000000e+04 >=   2.703400000e+04  52.0% (4086; 1691)
+1062673: mip =   5.632000000e+04 >=   2.703400000e+04  52.0% (4167; 1725)
+1078722: mip =   5.632000000e+04 >=   2.703400000e+04  52.0% (4261; 1736)
+1093985: mip =   5.632000000e+04 >=   2.703400000e+04  52.0% (4311; 1747)
+1109596: mip =   5.632000000e+04 >=   2.703400000e+04  52.0% (4359; 1756)
+1125330: mip =   5.632000000e+04 >=   2.703400000e+04  52.0% (4418; 1768)
+1142518: mip =   5.632000000e+04 >=   2.703400000e+04  52.0% (4526; 1794)
+1158908: mip =   5.632000000e+04 >=   2.703400000e+04  52.0% (4614; 1810)
Time used: 361.6 secs.  Memory used: 40.3 Mb.
+1176256: mip =   5.632000000e+04 >=   2.703400000e+04  52.0% (4683; 1825)
+1191639: mip =   5.632000000e+04 >=   2.703400000e+04  52.0% (4731; 1845)
+1209376: mip =   5.632000000e+04 >=   2.703400000e+04  52.0% (4822; 1874)
+1225063: mip =   5.632000000e+04 >=   2.703400000e+04  52.0% (4953; 1894)
+1240959: mip =   5.632000000e+04 >=   2.703400000e+04  52.0% (5027; 1934)
+1257013: mip =   5.632000000e+04 >=   2.703400000e+04  52.0% (5087; 1945)
+1273479: mip =   5.632000000e+04 >=   2.703400000e+04  52.0% (5130; 1954)
+1277185: >>>>>   5.529600000e+04 >=   2.703400000e+04  51.1% (5184; 1958)
+1293033: mip =   5.529600000e+04 >=   2.703400000e+04  51.1% (5159; 2086)
+1309588: mip =   5.529600000e+04 >=   2.703400000e+04  51.1% (5238; 2115)
+1326369: mip =   5.529600000e+04 >=   2.703400000e+04  51.1% (5387; 2149)
+1343297: mip =   5.529600000e+04 >=   2.703400000e+04  51.1% (5448; 2178)
Time used: 421.6 secs.  Memory used: 47.5 Mb.
+1359351: mip =   5.529600000e+04 >=   2.703400000e+04  51.1% (5548; 2198)
+1375511: mip =   5.529600000e+04 >=   2.703400000e+04  51.1% (5638; 2230)
+1393794: mip =   5.529600000e+04 >=   2.703400000e+04  51.1% (5712; 2243)
+1410529: mip =   5.529600000e+04 >=   2.703400000e+04  51.1% (5804; 2266)
+1426809: mip =   5.529600000e+04 >=   2.703400000e+04  51.1% (5861; 2282)
+1443113: mip =   5.529600000e+04 >=   2.703400000e+04  51.1% (5923; 2302)
+1459434: mip =   5.529600000e+04 >=   2.703400000e+04  51.1% (5994; 2331)
+1475528: mip =   5.529600000e+04 >=   2.703400000e+04  51.1% (6054; 2362)
+1491171: mip =   5.529600000e+04 >=   2.703400000e+04  51.1% (6111; 2380)
+1508312: mip =   5.529600000e+04 >=   2.703400000e+04  51.1% (6154; 2398)
+1526419: mip =   5.529600000e+04 >=   2.703400000e+04  51.1% (6222; 2426)
+1545906: mip =   5.529600000e+04 >=   2.703400000e+04  51.1% (6278; 2443)
Time used: 482.4 secs.  Memory used: 54.3 Mb.
+1561993: mip =   5.529600000e+04 >=   2.703400000e+04  51.1% (6315; 2464)
+1576689: mip =   5.529600000e+04 >=   2.703400000e+04  51.1% (6337; 2483)
+1594554: mip =   5.529600000e+04 >=   2.703400000e+04  51.1% (6433; 2520)
+1611942: mip =   5.529600000e+04 >=   2.703400000e+04  51.1% (6489; 2535)
+1630155: mip =   5.529600000e+04 >=   2.703400000e+04  51.1% (6567; 2578)
+1646854: mip =   5.529600000e+04 >=   2.703400000e+04  51.1% (6657; 2616)
+1662700: mip =   5.529600000e+04 >=   2.703400000e+04  51.1% (6683; 2632)
+1681018: mip =   5.529600000e+04 >=   2.703400000e+04  51.1% (6774; 2660)
+1697219: mip =   5.529600000e+04 >=   2.703400000e+04  51.1% (6854; 2704)
+1713388: mip =   5.529600000e+04 >=   2.703400000e+04  51.1% (6942; 2735)
+1730156: mip =   5.529600000e+04 >=   2.703400000e+04  51.1% (7025; 2762)
Time used: 542.5 secs.  Memory used: 60.7 Mb.
+1748447: mip =   5.529600000e+04 >=   2.703400000e+04  51.1% (7090; 2777)
+1764358: mip =   5.529600000e+04 >=   2.703400000e+04  51.1% (7159; 2808)
+1780784: mip =   5.529600000e+04 >=   2.703400000e+04  51.1% (7258; 2872)
+1796408: mip =   5.529600000e+04 >=   2.703400000e+04  51.1% (7299; 2897)
+1814394: mip =   5.529600000e+04 >=   2.703400000e+04  51.1% (7366; 2915)
+1829882: mip =   5.529600000e+04 >=   2.703400000e+04  51.1% (7428; 2931)
+1846946: mip =   5.529600000e+04 >=   2.703400000e+04  51.1% (7509; 2971)
+1864903: mip =   5.529600000e+04 >=   2.703400000e+04  51.1% (7609; 2999)
+1881347: mip =   5.529600000e+04 >=   2.703400000e+04  51.1% (7719; 3038)
+1898315: mip =   5.529600000e+04 >=   2.703400000e+04  51.1% (7769; 3070)
+1915690: mip =   5.529600000e+04 >=   2.703400000e+04  51.1% (7831; 3093)
Time used: 602.5 secs.  Memory used: 67.2 Mb.
+1931441: mip =   5.529600000e+04 >=   2.703400000e+04  51.1% (7868; 3102)
+1947599: mip =   5.529600000e+04 >=   2.703400000e+04  51.1% (7932; 3124)
+1964363: mip =   5.529600000e+04 >=   2.703400000e+04  51.1% (7970; 3138)
+1980787: mip =   5.529600000e+04 >=   2.703400000e+04  51.1% (7985; 3163)
+1997385: mip =   5.529600000e+04 >=   2.703400000e+04  51.1% (8037; 3193)
+2015776: mip =   5.529600000e+04 >=   2.703400000e+04  51.1% (8123; 3206)
+2032304: mip =   5.529600000e+04 >=   2.703400000e+04  51.1% (8182; 3229)
+2048975: mip =   5.529600000e+04 >=   2.703400000e+04  51.1% (8216; 3236)
+2066981: mip =   5.529600000e+04 >=   2.703400000e+04  51.1% (8276; 3244)
+2082241: mip =   5.529600000e+04 >=   2.703400000e+04  51.1% (8304; 3261)
+2098759: mip =   5.529600000e+04 >=   2.703400000e+04  51.1% (8326; 3279)
+2115482: mip =   5.529600000e+04 >=   2.703400000e+04  51.1% (8396; 3319)
Time used: 662.6 secs.  Memory used: 72.8 Mb.
+2134018: mip =   5.529600000e+04 >=   2.703400000e+04  51.1% (8470; 3336)
+2149307: mip =   5.529600000e+04 >=   2.703400000e+04  51.1% (8497; 3367)
+2165849: mip =   5.529600000e+04 >=   2.703400000e+04  51.1% (8551; 3393)
+2181462: mip =   5.529600000e+04 >=   2.703400000e+04  51.1% (8642; 3410)
+2196819: mip =   5.529600000e+04 >=   2.703400000e+04  51.1% (8689; 3437)
+2213458: mip =   5.529600000e+04 >=   2.703400000e+04  51.1% (8821; 3462)
+2228462: mip =   5.529600000e+04 >=   2.703400000e+04  51.1% (8872; 3487)
+2244079: mip =   5.529600000e+04 >=   2.703400000e+04  51.1% (8952; 3511)
+2259500: mip =   5.529600000e+04 >=   2.703400000e+04  51.1% (9036; 3536)
+2276235: mip =   5.529600000e+04 >=   2.703400000e+04  51.1% (9064; 3561)
+2291381: mip =   5.529600000e+04 >=   2.703400000e+04  51.1% (9109; 3576)
Time used: 722.6 secs.  Memory used: 80.2 Mb.
+2308173: mip =   5.529600000e+04 >=   2.703400000e+04  51.1% (9185; 3599)
+2324175: mip =   5.529600000e+04 >=   2.703400000e+04  51.1% (9238; 3624)
+2338759: mip =   5.529600000e+04 >=   2.703400000e+04  51.1% (9266; 3646)
+2354660: mip =   5.529600000e+04 >=   2.703400000e+04  51.1% (9320; 3666)
+2370065: mip =   5.529600000e+04 >=   2.703400000e+04  51.1% (9396; 3688)
+2388969: mip =   5.529600000e+04 >=   2.703400000e+04  51.1% (9461; 3722)
+2404752: mip =   5.529600000e+04 >=   2.703400000e+04  51.1% (9535; 3743)
+2422578: mip =   5.529600000e+04 >=   2.703400000e+04  51.1% (9619; 3773)
+2438005: mip =   5.529600000e+04 >=   2.703400000e+04  51.1% (9681; 3795)
+2454019: mip =   5.529600000e+04 >=   2.703400000e+04  51.1% (9715; 3812)
+2469653: mip =   5.529600000e+04 >=   2.703400000e+04  51.1% (9768; 3856)
+2487182: mip =   5.529600000e+04 >=   2.703400000e+04  51.1% (9839; 3874)
Time used: 782.7 secs.  Memory used: 86.9 Mb.
+2501818: mip =   5.529600000e+04 >=   2.703400000e+04  51.1% (9871; 3887)
+2517375: mip =   5.529600000e+04 >=   2.703400000e+04  51.1% (9890; 3915)
+2533922: mip =   5.529600000e+04 >=   2.703400000e+04  51.1% (9974; 3944)
+2549273: mip =   5.529600000e+04 >=   2.703400000e+04  51.1% (10043; 3960)
+2566907: mip =   5.529600000e+04 >=   2.703400000e+04  51.1% (10114; 3987)
+2583632: mip =   5.529600000e+04 >=   2.703400000e+04  51.1% (10192; 4013)
+2598804: mip =   5.529600000e+04 >=   2.703400000e+04  51.1% (10226; 4037)
+2614804: mip =   5.529600000e+04 >=   2.703400000e+04  51.1% (10292; 4074)
+2630998: mip =   5.529600000e+04 >=   2.703400000e+04  51.1% (10358; 4094)
+2646232: mip =   5.529600000e+04 >=   2.703400000e+04  51.1% (10363; 4103)
+2662278: mip =   5.529600000e+04 >=   2.703400000e+04  51.1% (10419; 4123)
Time used: 842.7 secs.  Memory used: 93.5 Mb.
+2679572: mip =   5.529600000e+04 >=   2.703400000e+04  51.1% (10489; 4136)
+2696197: mip =   5.529600000e+04 >=   2.703400000e+04  51.1% (10543; 4159)
+2711917: mip =   5.529600000e+04 >=   2.703400000e+04  51.1% (10604; 4181)
+2727853: mip =   5.529600000e+04 >=   2.703400000e+04  51.1% (10669; 4210)
+2744075: mip =   5.529600000e+04 >=   2.703400000e+04  51.1% (10752; 4223)
+2760376: mip =   5.529600000e+04 >=   2.703400000e+04  51.1% (10859; 4258)
+2777334: mip =   5.529600000e+04 >=   2.704800000e+04  51.1% (10942; 4284)
+2792331: mip =   5.529600000e+04 >=   2.707600000e+04  51.0% (11048; 4301)
+2807513: mip =   5.529600000e+04 >=   2.708100000e+04  51.0% (11101; 4340)
+2822877: mip =   5.529600000e+04 >=   2.709200000e+04  51.0% (11146; 4363)
+2838533: mip =   5.529600000e+04 >=   2.710200000e+04  51.0% (11233; 4381)
+2855997: mip =   5.529600000e+04 >=   2.711800000e+04  51.0% (11271; 4393)
Time used: 902.8 secs.  Memory used: 101.1 Mb.
+2871502: mip =   5.529600000e+04 >=   2.720500000e+04  50.8% (11322; 4407)
+2885137: mip =   5.529600000e+04 >=   2.722100000e+04  50.8% (11366; 4414)
+2902077: mip =   5.529600000e+04 >=   2.723900000e+04  50.7% (11428; 4433)
+2917379: mip =   5.529600000e+04 >=   2.723900000e+04  50.7% (11464; 4446)
+2933013: mip =   5.529600000e+04 >=   2.723900000e+04  50.7% (11521; 4457)
+2947578: mip =   5.529600000e+04 >=   2.723900000e+04  50.7% (11546; 4466)
+2962847: mip =   5.529600000e+04 >=   2.725300000e+04  50.7% (11557; 4483)
+2978576: mip =   5.529600000e+04 >=   2.726000000e+04  50.7% (11621; 4506)
+2994427: mip =   5.529600000e+04 >=   2.727300000e+04  50.7% (11654; 4555)
+3009665: mip =   5.529600000e+04 >=   2.729400000e+04  50.6% (11707; 4579)
+3026468: mip =   5.529600000e+04 >=   2.732300000e+04  50.6% (11748; 4591)
Time used: 962.9 secs.  Memory used: 105.8 Mb.
+3041820: mip =   5.529600000e+04 >=   2.734100000e+04  50.6% (11785; 4616)
+3059526: mip =   5.529600000e+04 >=   2.734100000e+04  50.6% (11845; 4629)
+3075476: mip =   5.529600000e+04 >=   2.734100000e+04  50.6% (11871; 4642)
+3091056: mip =   5.529600000e+04 >=   2.734100000e+04  50.6% (11925; 4650)
+3108257: mip =   5.529600000e+04 >=   2.734100000e+04  50.6% (11965; 4661)
+3123738: mip =   5.529600000e+04 >=   2.734100000e+04  50.6% (12005; 4671)
+3133645: >>>>>   5.120000000e+04 >=   2.734100000e+04  46.6% (12071; 4679)
+3149505: mip =   5.120000000e+04 >=   2.734100000e+04  46.6% (11736; 5408)
+3165687: mip =   5.120000000e+04 >=   2.734100000e+04  46.6% (11779; 5429)
+3180996: mip =   5.120000000e+04 >=   2.735600000e+04  46.6% (11812; 5438)
+3195840: mip =   5.120000000e+04 >=   2.737500000e+04  46.5% (11850; 5451)
+3211592: mip =   5.120000000e+04 >=   2.737500000e+04  46.5% (11881; 5471)
Time used: 1023.5 secs.  Memory used: 107.5 Mb.
+3226429: mip =   5.120000000e+04 >=   2.737800000e+04  46.5% (11911; 5487)
+3241500: mip =   5.120000000e+04 >=   2.744400000e+04  46.4% (11957; 5504)
+3260774: mip =   5.120000000e+04 >=   2.744400000e+04  46.4% (12034; 5513)
+3279427: mip =   5.120000000e+04 >=   2.744400000e+04  46.4% (12100; 5523)
+3297486: mip =   5.120000000e+04 >=   2.744400000e+04  46.4% (12172; 5534)
+3315133: mip =   5.120000000e+04 >=   2.744400000e+04  46.4% (12239; 5548)
+3333284: mip =   5.120000000e+04 >=   2.744400000e+04  46.4% (12340; 5559)
+3351026: mip =   5.120000000e+04 >=   2.744400000e+04  46.4% (12417; 5572)
+3367639: mip =   5.120000000e+04 >=   2.744400000e+04  46.4% (12473; 5582)
+3383517: mip =   5.120000000e+04 >=   2.744400000e+04  46.4% (12529; 5594)
+3399250: mip =   5.120000000e+04 >=   2.744400000e+04  46.4% (12571; 5606)
+3415854: mip =   5.120000000e+04 >=   2.744400000e+04  46.4% (12673; 5623)
Time used: 1083.9 secs.  Memory used: 109.8 Mb.
+3432795: mip =   5.120000000e+04 >=   2.744400000e+04  46.4% (12757; 5642)
+3448967: mip =   5.120000000e+04 >=   2.744400000e+04  46.4% (12806; 5661)
+3466336: mip =   5.120000000e+04 >=   2.745200000e+04  46.4% (12881; 5675)
+3480862: mip =   5.120000000e+04 >=   2.746500000e+04  46.4% (12914; 5683)
+3498760: mip =   5.120000000e+04 >=   2.747800000e+04  46.3% (12997; 5715)
+3514673: mip =   5.120000000e+04 >=   2.751200000e+04  46.3% (13072; 5742)
+3530315: mip =   5.120000000e+04 >=   2.752400000e+04  46.2% (13145; 5753)
+3547436: mip =   5.120000000e+04 >=   2.753300000e+04  46.2% (13204; 5764)
+3562674: mip =   5.120000000e+04 >=   2.754200000e+04  46.2% (13243; 5773)
+3578795: mip =   5.120000000e+04 >=   2.756100000e+04  46.2% (13258; 5781)
+3594339: mip =   5.120000000e+04 >=   2.756500000e+04  46.2% (13288; 5787)
+3610063: mip =   5.120000000e+04 >=   2.759900000e+04  46.1% (13317; 5797)
Time used: 1144.1 secs.  Memory used: 113.7 Mb.
+3626205: mip =   5.120000000e+04 >=   2.761400000e+04  46.1% (13349; 5804)
+3642884: mip =   5.120000000e+04 >=   2.764800000e+04  46.0% (13416; 5815)
+3661572: mip =   5.120000000e+04 >=   2.764800000e+04  46.0% (13466; 5823)
+3679559: mip =   5.120000000e+04 >=   2.764800000e+04  46.0% (13501; 5833)
+3698099: mip =   5.120000000e+04 >=   2.764800000e+04  46.0% (13553; 5841)
+3713665: mip =   5.120000000e+04 >=   2.764800000e+04  46.0% (13585; 5849)
+3729861: mip =   5.120000000e+04 >=   2.764800000e+04  46.0% (13608; 5866)
+3747275: mip =   5.120000000e+04 >=   2.764800000e+04  46.0% (13623; 5881)
+3762435: mip =   5.120000000e+04 >=   2.767000000e+04  46.0% (13645; 5899)
+3777741: mip =   5.120000000e+04 >=   2.768100000e+04  45.9% (13693; 5952)
+3794272: mip =   5.120000000e+04 >=   2.771700000e+04  45.9% (13797; 5974)
Time used: 1204.1 secs.  Memory used: 117.8 Mb.
+3811071: mip =   5.120000000e+04 >=   2.773000000e+04  45.8% (13873; 5986)
+3826224: mip =   5.120000000e+04 >=   2.777500000e+04  45.8% (13926; 6008)
+3841266: mip =   5.120000000e+04 >=   2.781500000e+04  45.7% (13959; 6023)
+3856140: mip =   5.120000000e+04 >=   2.785300000e+04  45.6% (13988; 6036)
+3874079: mip =   5.120000000e+04 >=   2.785300000e+04  45.6% (14031; 6046)
+3891176: mip =   5.120000000e+04 >=   2.785300000e+04  45.6% (14072; 6059)
+3908537: mip =   5.120000000e+04 >=   2.785300000e+04  45.6% (14102; 6073)
+3925367: mip =   5.120000000e+04 >=   2.785300000e+04  45.6% (14159; 6087)
+3942139: mip =   5.120000000e+04 >=   2.785300000e+04  45.6% (14210; 6105)
+3958548: mip =   5.120000000e+04 >=   2.785300000e+04  45.6% (14229; 6121)
+3974894: mip =   5.120000000e+04 >=   2.785300000e+04  45.6% (14257; 6134)
+3991517: mip =   5.120000000e+04 >=   2.785300000e+04  45.6% (14305; 6145)
Time used: 1264.6 secs.  Memory used: 120.7 Mb.
+4007006: mip =   5.120000000e+04 >=   2.785300000e+04  45.6% (14328; 6150)
+4025072: mip =   5.120000000e+04 >=   2.785300000e+04  45.6% (14378; 6160)
+4041157: mip =   5.120000000e+04 >=   2.785300000e+04  45.6% (14405; 6165)
+4058001: mip =   5.120000000e+04 >=   2.785300000e+04  45.6% (14449; 6172)
+4073297: mip =   5.120000000e+04 >=   2.785300000e+04  45.6% (14497; 6184)
+4090160: mip =   5.120000000e+04 >=   2.785300000e+04  45.6% (14536; 6191)
+4107543: mip =   5.120000000e+04 >=   2.785300000e+04  45.6% (14592; 6206)
+4123882: mip =   5.120000000e+04 >=   2.785300000e+04  45.6% (14626; 6224)
+4138949: mip =   5.120000000e+04 >=   2.785300000e+04  45.6% (14658; 6239)
+4153570: mip =   5.120000000e+04 >=   2.785300000e+04  45.6% (14664; 6248)
+4167245: mip =   5.120000000e+04 >=   2.785300000e+04  45.6% (14689; 6256)
+4181631: mip =   5.120000000e+04 >=   2.785300000e+04  45.6% (14703; 6268)
Time used: 1324.6 secs.  Memory used: 123.9 Mb.
+4196082: mip =   5.120000000e+04 >=   2.785300000e+04  45.6% (14712; 6282)
+4211127: mip =   5.120000000e+04 >=   2.785300000e+04  45.6% (14743; 6299)
+4226336: mip =   5.120000000e+04 >=   2.785300000e+04  45.6% (14759; 6307)
+4243364: mip =   5.120000000e+04 >=   2.787800000e+04  45.6% (14779; 6324)
+4259279: mip =   5.120000000e+04 >=   2.789000000e+04  45.5% (14831; 6346)
+4274579: mip =   5.120000000e+04 >=   2.790900000e+04  45.5% (14911; 6367)
+4290620: mip =   5.120000000e+04 >=   2.790900000e+04  45.5% (14960; 6388)
+4306043: mip =   5.120000000e+04 >=   2.792200000e+04  45.5% (15010; 6407)
+4323121: mip =   5.120000000e+04 >=   2.792900000e+04  45.5% (15048; 6414)
+4338128: mip =   5.120000000e+04 >=   2.794200000e+04  45.4% (15079; 6421)
+4354295: mip =   5.120000000e+04 >=   2.797900000e+04  45.4% (15110; 6426)
+4370323: mip =   5.120000000e+04 >=   2.799000000e+04  45.3% (15126; 6436)
Time used: 1384.6 secs.  Memory used: 127.6 Mb.
+4388211: mip =   5.120000000e+04 >=   2.799000000e+04  45.3% (15160; 6453)
+4404691: mip =   5.120000000e+04 >=   2.799000000e+04  45.3% (15175; 6475)
+4422647: mip =   5.120000000e+04 >=   2.799000000e+04  45.3% (15218; 6496)
+4438974: mip =   5.120000000e+04 >=   2.799000000e+04  45.3% (15247; 6510)
+4455481: mip =   5.120000000e+04 >=   2.799000000e+04  45.3% (15280; 6538)
+4472315: mip =   5.120000000e+04 >=   2.799000000e+04  45.3% (15310; 6557)
+4488738: mip =   5.120000000e+04 >=   2.799000000e+04  45.3% (15340; 6572)
+4505813: mip =   5.120000000e+04 >=   2.799000000e+04  45.3% (15344; 6589)
+4522075: mip =   5.120000000e+04 >=   2.799000000e+04  45.3% (15374; 6609)
+4538835: mip =   5.120000000e+04 >=   2.799000000e+04  45.3% (15391; 6627)
+4554082: mip =   5.120000000e+04 >=   2.799000000e+04  45.3% (15402; 6645)
Time used: 1444.8 secs.  Memory used: 129.7 Mb.
+4569543: mip =   5.120000000e+04 >=   2.799000000e+04  45.3% (15429; 6662)
+4586268: mip =   5.120000000e+04 >=   2.799000000e+04  45.3% (15492; 6687)
+4602719: mip =   5.120000000e+04 >=   2.799000000e+04  45.3% (15522; 6708)
+4620285: mip =   5.120000000e+04 >=   2.799000000e+04  45.3% (15539; 6728)
+4635774: mip =   5.120000000e+04 >=   2.799000000e+04  45.3% (15564; 6740)
+4652040: mip =   5.120000000e+04 >=   2.799000000e+04  45.3% (15580; 6758)
+4668413: mip =   5.120000000e+04 >=   2.799000000e+04  45.3% (15617; 6777)
+4683933: mip =   5.120000000e+04 >=   2.799000000e+04  45.3% (15627; 6793)
+4699485: mip =   5.120000000e+04 >=   2.799000000e+04  45.3% (15634; 6805)
+4714513: mip =   5.120000000e+04 >=   2.799000000e+04  45.3% (15661; 6818)
+4730959: mip =   5.120000000e+04 >=   2.799000000e+04  45.3% (15678; 6835)
+4746939: mip =   5.120000000e+04 >=   2.799000000e+04  45.3% (15706; 6864)
Time used: 1504.8 secs.  Memory used: 132.1 Mb.
+4762174: mip =   5.120000000e+04 >=   2.799000000e+04  45.3% (15747; 6881)
+4777981: mip =   5.120000000e+04 >=   2.799000000e+04  45.3% (15779; 6911)
+4793775: mip =   5.120000000e+04 >=   2.799900000e+04  45.3% (15821; 6943)
+4811451: mip =   5.120000000e+04 >=   2.801700000e+04  45.3% (15845; 6958)
+4828910: mip =   5.120000000e+04 >=   2.802400000e+04  45.3% (15876; 6972)
+4845038: mip =   5.120000000e+04 >=   2.802900000e+04  45.3% (15915; 6985)
+4860827: mip =   5.120000000e+04 >=   2.803700000e+04  45.2% (15951; 6993)
+4876693: mip =   5.120000000e+04 >=   2.804900000e+04  45.2% (15976; 7012)
+4892825: mip =   5.120000000e+04 >=   2.805800000e+04  45.2% (16001; 7024)
+4911476: mip =   5.120000000e+04 >=   2.805800000e+04  45.2% (16053; 7036)
+4929149: mip =   5.120000000e+04 >=   2.805800000e+04  45.2% (16091; 7050)
Time used: 1565.1 secs.  Memory used: 134.7 Mb.
+4947306: mip =   5.120000000e+04 >=   2.805800000e+04  45.2% (16135; 7063)
+4965121: mip =   5.120000000e+04 >=   2.805800000e+04  45.2% (16189; 7076)
+4982347: mip =   5.120000000e+04 >=   2.805800000e+04  45.2% (16263; 7092)
+5000004: mip =   5.120000000e+04 >=   2.805800000e+04  45.2% (16312; 7105)
+5016632: mip =   5.120000000e+04 >=   2.805800000e+04  45.2% (16360; 7117)
+5032998: >>>>>   5.017600000e+04 >=   2.805800000e+04  44.1% (16432; 7127)
+5050567: mip =   5.017600000e+04 >=   2.805800000e+04  44.1% (16382; 7372)
+5069986: mip =   5.017600000e+04 >=   2.805800000e+04  44.1% (16442; 7387)
+5086845: mip =   5.017600000e+04 >=   2.805800000e+04  44.1% (16496; 7399)
+5104066: mip =   5.017600000e+04 >=   2.805800000e+04  44.1% (16578; 7411)
+5121374: mip =   5.017600000e+04 >=   2.805800000e+04  44.1% (16615; 7425)
+5137795: mip =   5.017600000e+04 >=   2.805800000e+04  44.1% (16668; 7440)
Time used: 1625.2 secs.  Memory used: 136.8 Mb.
+5154296: mip =   5.017600000e+04 >=   2.805800000e+04  44.1% (16728; 7452)
+5171954: mip =   5.017600000e+04 >=   2.805800000e+04  44.1% (16781; 7468)
+5189041: mip =   5.017600000e+04 >=   2.805800000e+04  44.1% (16841; 7490)
+5206650: mip =   5.017600000e+04 >=   2.805800000e+04  44.1% (16910; 7505)
+5223287: mip =   5.017600000e+04 >=   2.805800000e+04  44.1% (16975; 7518)
+5239885: mip =   5.017600000e+04 >=   2.805800000e+04  44.1% (17042; 7535)
+5257300: mip =   5.017600000e+04 >=   2.805800000e+04  44.1% (17087; 7552)
+5273720: mip =   5.017600000e+04 >=   2.805800000e+04  44.1% (17144; 7567)
+5290589: mip =   5.017600000e+04 >=   2.805800000e+04  44.1% (17193; 7587)
+5306997: mip =   5.017600000e+04 >=   2.805800000e+04  44.1% (17261; 7605)
+5322963: mip =   5.017600000e+04 >=   2.805800000e+04  44.1% (17313; 7618)
+5339349: mip =   5.017600000e+04 >=   2.805800000e+04  44.1% (17376; 7633)
Time used: 1685.6 secs.  Memory used: 140.5 Mb.
+5356495: mip =   5.017600000e+04 >=   2.805800000e+04  44.1% (17420; 7650)
+5373313: mip =   5.017600000e+04 >=   2.805800000e+04  44.1% (17496; 7681)
+5388697: mip =   5.017600000e+04 >=   2.805800000e+04  44.1% (17530; 7691)
+5404310: mip =   5.017600000e+04 >=   2.805800000e+04  44.1% (17600; 7711)
+5419311: mip =   5.017600000e+04 >=   2.806000000e+04  44.1% (17609; 7726)
+5434950: mip =   5.017600000e+04 >=   2.806100000e+04  44.1% (17625; 7745)
+5451552: mip =   5.017600000e+04 >=   2.807500000e+04  44.0% (17649; 7769)
+5467601: mip =   5.017600000e+04 >=   2.808600000e+04  44.0% (17698; 7798)
+5483667: mip =   5.017600000e+04 >=   2.810900000e+04  44.0% (17752; 7822)
+5500604: mip =   5.017600000e+04 >=   2.811500000e+04  44.0% (17824; 7849)
+5517982: mip =   5.017600000e+04 >=   2.812300000e+04  44.0% (17848; 7862)
+5537109: mip =   5.017600000e+04 >=   2.812600000e+04  43.9% (17933; 7873)
Time used: 1745.7 secs.  Memory used: 144.6 Mb.
+5554346: mip =   5.017600000e+04 >=   2.812600000e+04  43.9% (17981; 7885)
+5571453: mip =   5.017600000e+04 >=   2.812600000e+04  43.9% (18036; 7891)
+5591142: mip =   5.017600000e+04 >=   2.812600000e+04  43.9% (18112; 7902)
+5607324: mip =   5.017600000e+04 >=   2.813300000e+04  43.9% (18157; 7912)
+5626840: mip =   5.017600000e+04 >=   2.814800000e+04  43.9% (18214; 7927)
+5645283: mip =   5.017600000e+04 >=   2.816000000e+04  43.9% (18252; 7947)
+5663407: mip =   5.017600000e+04 >=   2.816000000e+04  43.9% (18289; 7954)
+5681122: mip =   5.017600000e+04 >=   2.816000000e+04  43.9% (18338; 7965)
+5698595: mip =   5.017600000e+04 >=   2.816000000e+04  43.9% (18381; 7986)
+5716999: mip =   5.017600000e+04 >=   2.816000000e+04  43.9% (18456; 7999)
